k = 64;
b = 32;
AtomicConstraints =  [|
1, 2|
	1, 3|
	1, 4|
	1, 5|
	1, 6|
	1, 7|
	1, 12|
	1, 13|
	1, 14|
	1, 15|
	1, 16|
	1, 17|
	1, 57|
	1, 56|
	1, 59|
	1, 64|
	1, 58|
	2, 3|
	2, 4|
	2, 57|
	2, 56|
	2, 59|
	3, 4|
	3, 57|
	3, 56|
	3, 59|
	4, 57|
	4, 56|
	4, 59|
	5, 4|
	5, 57|
	5, 56|
	5, 59|
	6, 15|
	6, 16|
	6, 17|
	6, 57|
	6, 56|
	6, 59|
	7, 15|
	7, 16|
	7, 17|
	7, 57|
	7, 56|
	7, 59|
	7, 64|
	8, 2|
	8, 3|
	8, 4|
	8, 57|
	8, 56|
	8, 59|
	8, 61|
	8, 63|
	8, 60|
	9, 2|
	9, 3|
	9, 4|
	9, 57|
	9, 56|
	9, 59|
	9, 61|
	9, 63|
	9, 60|
	10, 2|
	10, 3|
	10, 4|
	10, 57|
	10, 56|
	10, 59|
	10, 61|
	10, 63|
	10, 60|
	11, 2|
	11, 3|
	11, 4|
	11, 5|
	11, 57|
	11, 56|
	11, 59|
	11, 61|
	11, 63|
	11, 60|
	12, 2|
	12, 3|
	12, 4|
	12, 5|
	12, 6|
	12, 7|
	12, 15|
	12, 16|
	12, 17|
	12, 57|
	12, 56|
	12, 59|
	12, 64|
	13, 2|
	13, 3|
	13, 4|
	13, 5|
	13, 6|
	13, 7|
	13, 15|
	13, 16|
	13, 17|
	13, 57|
	13, 56|
	13, 59|
	13, 64|
	14, 2|
	14, 3|
	14, 4|
	14, 5|
	14, 6|
	14, 7|
	14, 15|
	14, 16|
	14, 17|
	14, 57|
	14, 56|
	14, 59|
	14, 64|
	16, 15|
	16, 59|
	17, 15|
	17, 16|
	17, 56|
	17, 59|
	18, 2|
	18, 3|
	18, 4|
	18, 5|
	18, 6|
	18, 7|
	18, 15|
	18, 16|
	18, 17|
	18, 57|
	18, 56|
	18, 59|
	18, 61|
	18, 64|
	19, 2|
	19, 3|
	19, 4|
	19, 5|
	19, 6|
	19, 7|
	19, 14|
	19, 15|
	19, 16|
	19, 17|
	19, 57|
	19, 56|
	19, 59|
	19, 61|
	19, 64|
	20, 2|
	20, 3|
	20, 4|
	20, 5|
	20, 6|
	20, 7|
	20, 13|
	20, 14|
	20, 15|
	20, 16|
	20, 17|
	20, 57|
	20, 56|
	20, 59|
	20, 64|
	21, 39|
	21, 24|
	21, 25|
	21, 36|
	21, 43|
	21, 38|
	21, 26|
	21, 27|
	21, 47|
	21, 50|
	21, 44|
	21, 51|
	21, 28|
	21, 30|
	21, 35|
	21, 31|
	21, 32|
	22, 39|
	22, 24|
	22, 25|
	22, 48|
	22, 36|
	22, 43|
	22, 38|
	22, 26|
	22, 27|
	22, 47|
	22, 49|
	22, 50|
	22, 44|
	22, 51|
	22, 28|
	22, 34|
	22, 30|
	22, 35|
	22, 31|
	22, 32|
	23, 39|
	23, 24|
	23, 25|
	23, 48|
	23, 36|
	23, 43|
	23, 38|
	23, 26|
	23, 27|
	23, 47|
	23, 49|
	23, 44|
	23, 51|
	23, 28|
	23, 34|
	23, 29|
	23, 35|
	23, 31|
	23, 42|
	23, 32|
	41, 39|
	41, 24|
	41, 25|
	41, 48|
	41, 45|
	41, 36|
	41, 43|
	41, 38|
	41, 26|
	41, 27|
	41, 47|
	41, 49|
	41, 46|
	41, 44|
	41, 51|
	41, 28|
	41, 34|
	41, 29|
	41, 35|
	41, 42|
	41, 40|
	41, 32|
	36, 39|
	36, 35|
	36, 32|
	43, 39|
	43, 35|
	43, 32|
	38, 39|
	38, 24|
	38, 25|
	26, 24|
	26, 25|
	27, 24|
	27, 25|
	47, 48|
	49, 48|
	46, 45|
	37, 35|
	50, 39|
	50, 36|
	50, 43|
	50, 35|
	50, 32|
	44, 39|
	44, 24|
	44, 25|
	44, 43|
	44, 38|
	44, 26|
	44, 27|
	44, 35|
	44, 32|
	51, 39|
	51, 24|
	51, 25|
	51, 38|
	51, 26|
	51, 27|
	51, 47|
	51, 32|
	28, 39|
	28, 24|
	28, 25|
	28, 48|
	28, 38|
	28, 26|
	28, 27|
	28, 47|
	28, 49|
	34, 24|
	34, 25|
	34, 48|
	34, 26|
	34, 27|
	34, 47|
	34, 49|
	29, 24|
	29, 25|
	29, 48|
	29, 27|
	29, 47|
	29, 49|
	30, 39|
	30, 24|
	30, 25|
	30, 36|
	30, 43|
	30, 38|
	30, 26|
	30, 27|
	30, 47|
	30, 44|
	30, 51|
	30, 28|
	30, 35|
	30, 32|
	31, 39|
	31, 24|
	31, 25|
	31, 48|
	31, 36|
	31, 43|
	31, 38|
	31, 26|
	31, 27|
	31, 47|
	31, 49|
	31, 44|
	31, 51|
	31, 28|
	31, 34|
	31, 35|
	31, 32|
	42, 39|
	42, 24|
	42, 25|
	42, 48|
	42, 45|
	42, 38|
	42, 26|
	42, 27|
	42, 47|
	42, 49|
	42, 46|
	42, 51|
	42, 28|
	42, 34|
	42, 29|
	42, 35|
	42, 32|
	40, 39|
	40, 24|
	40, 25|
	40, 48|
	40, 45|
	40, 38|
	40, 26|
	40, 27|
	40, 47|
	40, 49|
	40, 46|
	40, 28|
	40, 34|
	40, 29|
	40, 32|
	33, 39|
	33, 24|
	33, 36|
	33, 43|
	33, 38|
	33, 37|
	33, 50|
	33, 35|
	33, 32|
	52, 39|
	52, 24|
	52, 25|
	52, 36|
	52, 43|
	52, 38|
	52, 26|
	52, 27|
	52, 37|
	52, 50|
	52, 44|
	52, 35|
	52, 32|
	57, 56|
	57, 59|
	56, 59|
	55, 39|
	55, 21|
	55, 22|
	55, 23|
	55, 41|
	55, 24|
	55, 25|
	55, 48|
	55, 45|
	55, 36|
	55, 43|
	55, 38|
	55, 26|
	55, 27|
	55, 47|
	55, 49|
	55, 46|
	55, 37|
	55, 50|
	55, 44|
	55, 51|
	55, 28|
	55, 34|
	55, 29|
	55, 30|
	55, 35|
	55, 31|
	55, 42|
	55, 40|
	55, 32|
	55, 33|
	55, 52|
	55, 64|
	53, 39|
	53, 21|
	53, 22|
	53, 23|
	53, 41|
	53, 24|
	53, 25|
	53, 48|
	53, 45|
	53, 36|
	53, 43|
	53, 38|
	53, 26|
	53, 27|
	53, 47|
	53, 49|
	53, 46|
	53, 37|
	53, 50|
	53, 44|
	53, 51|
	53, 28|
	53, 34|
	53, 29|
	53, 30|
	53, 35|
	53, 31|
	53, 42|
	53, 40|
	53, 32|
	53, 33|
	53, 52|
	53, 64|
	54, 39|
	54, 21|
	54, 22|
	54, 23|
	54, 41|
	54, 24|
	54, 25|
	54, 48|
	54, 45|
	54, 36|
	54, 43|
	54, 38|
	54, 26|
	54, 27|
	54, 47|
	54, 49|
	54, 46|
	54, 37|
	54, 50|
	54, 44|
	54, 51|
	54, 28|
	54, 34|
	54, 29|
	54, 30|
	54, 35|
	54, 31|
	54, 42|
	54, 40|
	54, 32|
	54, 33|
	54, 52|
	54, 64|
	63, 61|
	60, 61|
	60, 63|
	58, 64|
	62, 15|
	62, 16|
	62, 17|
	62, 39|
	62, 21|
	62, 22|
	62, 23|
	62, 41|
	62, 24|
	62, 25|
	62, 48|
	62, 45|
	62, 36|
	62, 43|
	62, 38|
	62, 26|
	62, 27|
	62, 47|
	62, 49|
	62, 46|
	62, 37|
	62, 50|
	62, 44|
	62, 51|
	62, 28|
	62, 34|
	62, 29|
	62, 30|
	62, 35|
	62, 31|
	62, 42|
	62, 40|
	62, 32|
	62, 33|
	62, 52|
	62, 57|
	62, 56|
	62, 59|
	62, 55|
	62, 53|
	62, 54|
	62, 64|
	62, 58|];
DisjunctiveConstraints =  [|1, 35, 3, 1|
	6, 7, 6, 5|
	6, 15, 47, 6|
	6, 16, 48, 6|
	7, 48, 7, 16|
	7, 47, 7, 15|
	7, 49, 7, 17|
	7, 64, 32, 7|
	9, 10, 9, 8|
	10, 11, 10, 9|
	11, 37, 11, 5|
	13, 12, 13, 14|
	18, 14, 46, 18|
	19, 13, 45, 19|
	19, 20, 19, 18|
	19, 46, 19, 14|
	20, 12, 44, 20|
	20, 45, 20, 13|
	21, 22, 21, 52|
	21, 28, 60, 21|
	22, 23, 22, 21|
	22, 48, 16, 22|
	23, 41, 23, 22|
	41, 45, 13, 41|
	41, 46, 14, 41|
	39, 24, 39, 32|
	24, 25, 24, 39|
	43, 38, 43, 36|
	38, 26, 38, 43|
	26, 27, 26, 38|
	51, 28, 51, 44|
	28, 34, 28, 51|
	34, 29, 34, 28|
	42, 45, 13, 42|
	42, 46, 14, 42|
	40, 45, 40, 13|
	52, 44, 12, 52|
	32, 39, 32, 35|
	53, 8, 53, 40|
	53, 45, 53, 13|
	53, 46, 53, 14|
	53, 55, 53, 54|
	54, 23, 54, 55|
	54, 41, 54, 9|
	54, 42, 54, 10|
	54, 40, 8, 54|];
SoftAtomicConstraints =  [|
6, 5|
7, 6|
9, 8|
10, 9|
11, 10|
12, 13|
13, 14|
19, 18|
20, 19|
22, 21|
23, 22|
41, 23|
25, 24|
48, 25|
27, 26|
47, 27|
34, 28|
31, 30|
42, 31|
39, 32|
52, 33|
29, 34|
32, 35|
43, 36|
50, 37|
26, 38|
24, 39|
40, 42|
38, 43|
51, 44|
49, 47|
45, 48|
46, 49|
44, 50|
28, 51|
21, 52|
55, 53|
53, 54|];
DirectSuccessors =  [];
